NAME : tsp40_27.208.tour
COMMENT : Length = 208
COMMENT : Found by LKH [Keld Helsgaun]
TYPE : TOUR
DIMENSION : 40
TOUR_SECTION
1
5
34
22
2
32
13
28
12
23
31
35
3
6
16
11
40
25
7
24
15
29
30
36
14
26
38
19
18
9
39
33
10
8
4
20
27
37
21
17
-1
EOF
